# Objective value = 4
y1 1
y2 0
y3 1
y4 0
y5 0
y6 0
y7 1
y8 0
y9 0
y10 0
y11 1
x1_1 1
x1_2 0
x1_3 0
x1_4 0
x1_5 0
x1_6 0
x1_7 0
x1_8 0
x1_9 0
x1_10 0
x1_11 0
x2_1 0
x2_2 0
x2_3 0
x2_4 0
x2_5 0
x2_6 0
x2_7 1
x2_8 0
x2_9 0
x2_10 0
x2_11 0
x3_1 1
x3_2 0
x3_3 0
x3_4 0
x3_5 0
x3_6 0
x3_7 0
x3_8 0
x3_9 0
x3_10 0
x3_11 0
x4_1 0
x4_2 0
x4_3 0
x4_4 0
x4_5 0
x4_6 0
x4_7 1
x4_8 0
x4_9 0
x4_10 0
x4_11 0
x5_1 0
x5_2 0
x5_3 0
x5_4 0
x5_5 0
x5_6 0
x5_7 0
x5_8 0
x5_9 0
x5_10 0
x5_11 1
x6_1 0
x6_2 0
x6_3 1
x6_4 0
x6_5 0
x6_6 0
x6_7 0
x6_8 0
x6_9 0
x6_10 0
x6_11 0
x7_1 0
x7_2 0
x7_3 1
x7_4 0
x7_5 0
x7_6 0
x7_7 0
x7_8 0
x7_9 0
x7_10 0
x7_11 0
x8_1 0
x8_2 0
x8_3 1
x8_4 0
x8_5 0
x8_6 0
x8_7 0
x8_8 0
x8_9 0
x8_10 0
x8_11 0
x9_1 0
x9_2 0
x9_3 1
x9_4 0
x9_5 0
x9_6 0
x9_7 0
x9_8 0
x9_9 0
x9_10 0
x9_11 0
x10_1 0
x10_2 0
x10_3 1
x10_4 0
x10_5 0
x10_6 0
x10_7 0
x10_8 0
x10_9 0
x10_10 0
x10_11 0
x11_1 0
x11_2 0
x11_3 0
x11_4 0
x11_5 0
x11_6 0
x11_7 1
x11_8 0
x11_9 0
x11_10 0
x11_11 0
